
  32    4
  10   10   10   10

   0   0   0   0   0   1 2 
  10   1   0   1   1   1 3 
   3   5   1   2   0   1 4 
   6   0   3   5   4   1 5 
   5   4   4   0   6   1 6 
   8   0   6   4   5   2 31 7 
   4   5   5   9   0   2 30 8 
   5   0   3   6   5   1 9 
   2   3   3   0   4   2 29 10 
   3   3   1   0   3   1 11 
   4   9   5   0   6   2 28 12 
   9   6   3   3   0   3 27 26 13 
   6   4   0  10   3   1 14 
   2   5   4   3   0   1 15 
   6   3   0   3   6   1 16 
   8   0   4   4   4   1 17 
   2   3   4   0   4   1 18 
   2   0   7   3   2   1 19 
   7   5   0   1   3   1 20 
   6   4   3   0   2   1 21 
   7   3   7   0   4   1 22 
   4   4   3   0   5   1 23 
  10   2   0   5   4   1 24 
   5   0   2   5   3   1 25 
   9   4   6   0   4   1 32
   5   0   2   1   4   1 32
   1   4   9   0   5   1 32
   6   5   0   5   6   1 32
   5   2   0   3   4   1 32
   1   4   4   0   5   1 32
   6   0   3   3   2   1 32
   0   0   0   0   0   0 
